File "./GRP717-1/SMT.v", line 6, characters 0-15:
Warning: Interpreting this declaration as if a global declaration prefixed by
"Local", i.e. as a global declaration which shall not be available without
qualification when imported. [local-declaration,vernacular,default]
File "./GRP717-1/SMT.v", line 7, characters 0-24:
Warning: Interpreting this declaration as if a global declaration prefixed by
"Local", i.e. as a global declaration which shall not be available without
qualification when imported. [local-declaration,vernacular,default]
File "./GRP717-1/SMT.v", line 8, characters 0-28:
Warning: Interpreting this declaration as if a global declaration prefixed by
"Local", i.e. as a global declaration which shall not be available without
qualification when imported. [local-declaration,vernacular,default]
File "./GRP717-1/SMT.v", line 9, characters 0-18:
Warning: Interpreting this declaration as if a global declaration prefixed by
"Local", i.e. as a global declaration which shall not be available without
qualification when imported. [local-declaration,vernacular,default]
File "./GRP717-1/SMT.v", line 10, characters 0-18:
Warning: Interpreting this declaration as if a global declaration prefixed by
"Local", i.e. as a global declaration which shall not be available without
qualification when imported. [local-declaration,vernacular,default]
File "./GRP717-1/SMT.v", line 11, characters 0-18:
Warning: Interpreting this declaration as if a global declaration prefixed by
"Local", i.e. as a global declaration which shall not be available without
qualification when imported. [local-declaration,vernacular,default]
File "./GRP717-1/SMT.v", line 12, characters 0-28:
Warning: Interpreting this declaration as if a global declaration prefixed by
"Local", i.e. as a global declaration which shall not be available without
qualification when imported. [local-declaration,vernacular,default]
File "./GRP717-1/SMT.v", line 13, characters 0-18:
Warning: Interpreting this declaration as if a global declaration prefixed by
"Local", i.e. as a global declaration which shall not be available without
qualification when imported. [local-declaration,vernacular,default]
veriT --proof-prune --proof-merge --proof-with-sharing --cnf-definitional --disable-ackermann --input=smtlib2 --proof=/tmp/verit_coq788db8.vtlog /tmp/verit_coq788db8.smt2 2> /tmp/warnings_verite7de29.log
veriT dev - the SMT-solver veriT (UFRN/LORIA).
success
success
success
success
success
success
success
success
success
success
success
success
success
success
success
success
success
success
success
success
success
unknown
success
success
Verit = 0.00007
(set-option :print-success true)
(set-option :produce-assignments true)
(set-option :produce-proofs true)
(set-logic QF_UFLIA)
(declare-fun op_0 () Int)
(declare-fun op_2 () Int)
(declare-fun op_1 () Int)
(declare-fun op_3 (Int Int ) Int)
(assert (not (= (op_3 (op_3 op_0 (op_3 (op_3 op_1 op_2) op_0)) op_1) op_2)))
(check-sat)
(get-model)
File "./GRP717-1/SMT.v", line 31, characters 2-5:
Error:
CVC4 returned sat. Here is the model:

op_b := 0
op_a := -1
a := 1
mult := fun BOUND_VARIABLE_319 BOUND_VARIABLE_320 => if BOUND_VARIABLE_319 = 2 then if BOUND_VARIABLE_320 = 0 then -2 else -3 else if BOUND_VARIABLE_319 = -1 then if BOUND_VARIABLE_320 = 1 then 2 else -3 else if BOUND_VARIABLE_319 = 0 then if BOUND_VARIABLE_320 = -2 then 3 else -3 else -3

